
Gurobi 12.0.2 (win64) logging started Thu Nov 13 22:46:40 2025

Set parameter LogFile to value "resultados DATA_1_n30m05b2d1\instancia_7_log.txt"
Set parameter TimeLimit to value 3600
Gurobi Optimizer version 12.0.2 build v12.0.2rc0 (win64 - Windows 10.0 (19045.2))

CPU model: Intel(R) Core(TM) i5-6300U CPU @ 2.40GHz, instruction set [SSE2|AVX|AVX2]
Thread count: 2 physical cores, 4 logical processors, using up to 4 threads

Non-default parameters:
TimeLimit  3600

Optimize a model with 7301 rows, 12216 columns and 3263384 nonzeros
Model fingerprint: 0x609cf064
Variable types: 0 continuous, 12216 integer (12216 binary)
Coefficient statistics:
  Matrix range     [1e+00, 1e+00]
  Objective range  [1e-02, 5e-02]
  Bounds range     [1e+00, 1e+00]
  RHS range        [1e+00, 6e+01]
Found heuristic solution: objective 0.8233704
Presolve removed 219 rows and 5196 columns (presolve time = 5s)...
Presolve removed 219 rows and 5196 columns (presolve time = 10s)...
Presolve removed 219 rows and 5196 columns (presolve time = 15s)...
Presolve removed 219 rows and 5196 columns (presolve time = 20s)...
Presolve removed 219 rows and 5196 columns
Presolve time: 24.29s
Presolved: 7082 rows, 7020 columns, 1764377 nonzeros
Found heuristic solution: objective 0.4274444
Variable types: 0 continuous, 7020 integer (7020 binary)

Root simplex log...

Iteration    Objective       Primal Inf.    Dual Inf.      Time
       0    4.4846667e+00   1.679400e+04   0.000000e+00     25s
     560    2.0570271e+00   7.285424e+04   0.000000e+00     25s
    5391    9.5772235e-01   4.319642e+04   0.000000e+00     30s
    9031    9.2607252e-01   4.962093e+04   0.000000e+00     35s
   12221    9.1514192e-01   1.530236e+03   0.000000e+00     40s
   15571    9.0946066e-01   1.075379e+04   0.000000e+00     45s
   18961    9.0735218e-01   2.101917e+04   0.000000e+00     50s
   22131    9.0669103e-01   5.087163e+02   0.000000e+00     55s
   24560    9.0693827e-01   0.000000e+00   0.000000e+00     60s

Root relaxation: objective 9.069383e-01, 24560 iterations, 35.19 seconds (42.39 work units)
Total elapsed time = 60.35s (DegenMoves)

    Nodes    |    Current Node    |     Objective Bounds      |     Work
 Expl Unexpl |  Obj  Depth IntInf | Incumbent    BestBd   Gap | It/Node Time

     0     0    0.90694    0  235    0.82337    0.90694  10.1%     -   61s
H    0     0                       0.8411481    0.90694  7.82%     -   62s
H    0     0                       0.8414815    0.90694  7.78%     -   62s
H    0     0                       0.8524815    0.90694  6.39%     -   62s
H    0     0                       0.8729630    0.90694  3.89%     -   62s
H    0     0                       0.8772963    0.90694  3.38%     -   62s
     0     0    0.90694    0  248    0.87730    0.90694  3.38%     -   76s
     0     0    0.90694    0  254    0.87730    0.90694  3.38%     -   93s
     0     0    0.90694    0   84    0.87730    0.90694  3.38%     -   97s
     0     0    0.90694    0  297    0.87730    0.90694  3.38%     -  111s
H    0     0                       0.8826667    0.90694  2.75%     -  111s
     0     0    0.90694    0   83    0.88267    0.90694  2.75%     -  130s
     0     0    0.90694    0   85    0.88267    0.90694  2.75%     -  132s
     0     0    0.90694    0   85    0.88267    0.90694  2.75%     -  151s
     0     0    0.90694    0  119    0.88267    0.90694  2.75%     -  171s
     0     0    0.90694    0  411    0.88267    0.90694  2.75%     -  198s
     0     0    0.90694    0   70    0.88267    0.90694  2.75%     -  213s
     0     0    0.90694    0  349    0.88267    0.90694  2.75%     -  226s
     0     0    0.90694    0   80    0.88267    0.90694  2.75%     -  230s
     0     0    0.90694    0   80    0.88267    0.90694  2.75%     -  314s
     0     2    0.90694    0   80    0.88267    0.90694  2.75%     -  342s
     1     3    0.90233    1  309    0.88267    0.90694  2.75%  7290  367s
     2     5    0.89439    2  134    0.88267    0.90694  2.75%  5098  372s
     6    11    0.89427    4  134    0.88267    0.90694  2.75%  2221  383s
    10    16    0.89204    6   70    0.88267    0.90694  2.75%  1791  392s
    15    17    0.89044    8   68    0.88267    0.90694  2.75%  2104  407s
    16    21    0.89044    9   65    0.88267    0.90694  2.75%  1973  418s
    22    27    0.88971   13   42    0.88267    0.90694  2.75%  1856  428s
    28    33    0.88872   18   59    0.88267    0.90694  2.75%  1835  430s
    46    51    0.88540   32  166    0.88267    0.90694  2.75%  1229  436s
H   53    53                       0.8840370    0.90694  2.59%  1094  437s
H   64    63                       0.8879259    0.90694  2.14%   943  441s
    72    63     cutoff   46         0.88793    0.90694  2.14%   859  449s
    74    67    0.88825   19   21    0.88793    0.90694  2.14%   887  451s
    78    66     cutoff   20         0.88793    0.90694  2.14%   856  460s
    81    66     cutoff   23         0.88793    0.90694  2.14%  1014  470s
    83    68    0.89079   24  249    0.88793    0.90694  2.14%  1072  476s
    91    82    0.89043   30  262    0.88793    0.90694  2.14%  1015  480s
   108    93    0.88938   44  302    0.88793    0.90694  2.14%   910  486s
   117   114    0.88925   51  279    0.88793    0.90694  2.14%   856  490s
   141   124    0.88906   69  272    0.88793    0.90694  2.14%   738  496s
   156   113    0.88821   82  288    0.88793    0.90694  2.14%   691  506s
   166   113     cutoff   76         0.88793    0.90694  2.14%   661  516s
   168   113     cutoff   20         0.88793    0.90694  2.14%   659  527s
   170   113     cutoff   19         0.88793    0.90694  2.14%   657  537s
   172   114     cutoff   72         0.88793    0.90694  2.14%   665  545s
   177   121    0.90694    3  348    0.88793    0.90694  2.14%   691  559s
   182   123    0.90694    4  347    0.88793    0.90694  2.14%   683  562s
   184   124    0.89450   53  417    0.88793    0.90694  2.14%   676  575s
   185   133    0.89450   54  417    0.88793    0.90694  2.14%   673  591s
   194   135    0.90515    5  178    0.88793    0.90694  2.14%   675  604s
   196   137    0.90511    6  171    0.88793    0.90694  2.14%   671  618s
   198   139    0.90014    6  182    0.88793    0.90694  2.14%   693  629s
   200   150    0.90316    7   73    0.88793    0.90694  2.14%   700  638s
   211   152    0.90235    9   62    0.88793    0.90694  2.14%   693  656s
   213   161    0.89942    9   43    0.88793    0.90694  2.14%   697  666s
   222   169    0.89632   11  192    0.88793    0.90694  2.14%   708  673s
   230   184    0.89375   16   52    0.88793    0.90694  2.14%   704  678s
H  231   132                       0.8904074    0.90694  1.86%   701  678s
H  237   127                       0.8928148    0.90694  1.58%   686  678s
   249   114     cutoff   30         0.89281    0.90694  1.58%   679  691s
   260   117    0.90694    6  144    0.89281    0.90694  1.58%   706  705s
   263   119    0.89823    7  427    0.89281    0.90694  1.58%   749  720s
   265   120    0.89777    9  399    0.89281    0.90694  1.58%   751  736s
   266   122    0.90671    6  180    0.89281    0.90694  1.58%   760  748s
   268   124    0.90664    7  306    0.89281    0.90694  1.58%   768  759s
   270   123     cutoff   11         0.89281    0.90694  1.58%   800  826s
   271   122     cutoff   82         0.89281    0.90694  1.58%   817  845s
   274   121     cutoff   83         0.89281    0.90694  1.58%   851  866s
   275   121    0.90427    8  247    0.89281    0.90694  1.58%   866  881s
   277   120     cutoff   81         0.89281    0.90694  1.58%   906  905s
   278   119     cutoff    4         0.89281    0.90694  1.58%   908  929s
   279   117     cutoff   77         0.89281    0.90694  1.58%   933 11739s

Cutting planes:
  Clique: 2
  Zero half: 5

Explored 281 nodes (332684 simplex iterations) in 11741.95 seconds (1401.40 work units)
Thread count was 4 (of 4 available processors)

Solution count 10: 0.892815 0.890407 0.887926 ... 0.841148

Time limit reached
Best objective 8.928148148148e-01, best bound 9.069382716049e-01, gap 1.5819%
